10J3M/DAT/10J3MNLR-19.dat
10 3
25.2061 39.2701
25.3003 6.1502
23.811 40.9101
24.7396 45.9541
20.5215 37.9455
30.1725 23.5371
38.9679 25.3478
25.3803 31.4145
28.1926 34.171
27.774 45.9041
110.2015