10J3M/SOL/10J3MNLR-19.sol
solution status: optimal solution found
objective value:                     90.0219333333333
x#1#1                                               1 	(obj:0)
x#2#2                                               1 	(obj:0)
x#3#3                                               1 	(obj:0)
x#4#2                                               1 	(obj:0)
x#5#1                               0.563690123636781 	(obj:0)
x#5#3                               0.436309876363219 	(obj:0)
x#6#3                                               1 	(obj:0)
x#7#1                               0.715146735162047 	(obj:0)
x#7#2                               0.118980972163659 	(obj:0)
x#7#3                               0.165872292674294 	(obj:0)
x#8#1                                               1 	(obj:0)
x#9#2                               0.268566741207164 	(obj:0)
x#9#3                               0.731433258792836 	(obj:0)
x#10#2                                              1 	(obj:0)
z                                    90.0219333333333 	(obj:1)
